Set parameter Username
Academic license - for non-commercial use only - expires 2024-10-29
Set parameter LazyConstraints to value 1
Set parameter TimeLimit to value 600
Gurobi Optimizer version 10.0.0 build v10.0.0rc2 (linux64)

CPU model: AMD FX(tm)-4300 Quad-Core Processor, instruction set [SSE2|AVX]
Thread count: 2 physical cores, 4 logical processors, using up to 4 threads

Optimize a model with 50010 rows, 12500 columns and 50486 nonzeros
Model fingerprint: 0xfc8887d6
Variable types: 0 continuous, 12500 integer (12500 binary)
Coefficient statistics:
  Matrix range     [1e+00, 1e+00]
  Objective range  [1e+00, 1e+01]
  Bounds range     [1e+00, 1e+00]
  RHS range        [1e+00, 1e+00]
Presolve removed 50000 rows and 0 columns
Presolve time: 0.02s
Presolved: 10 rows, 12500 columns, 486 nonzeros
Variable types: 0 continuous, 12500 integer (12500 binary)

Root relaxation: objective 9.000000e+00, 10 iterations, 0.00 seconds (0.00 work units)

    Nodes    |    Current Node    |     Objective Bounds      |     Work
 Expl Unexpl |  Obj  Depth IntInf | Incumbent    BestBd   Gap | It/Node Time

     0     0    9.00000    0    -          -    9.00000      -     -    4s
     0     0    9.00000    0    -          -    9.00000      -     -    5s
     0     0    9.00000    0    -          -    9.00000      -     -    5s
     0     0    9.00000    0    -          -    9.00000      -     -    6s
     0     0    9.00000    0    -          -    9.00000      -     -    7s
     0     0    9.00000    0    -          -    9.00000      -     -    8s
     0     0    9.00000    0    -          -    9.00000      -     -    9s
     0     0    9.00000    0    -          -    9.00000      -     -    9s
     0     0    9.00000    0    -          -    9.00000      -     -   10s
     0     0    9.00000    0    -          -    9.00000      -     -   11s
     0     0    9.00000    0    -          -    9.00000      -     -   12s
     0     0    9.00000    0    -          -    9.00000      -     -   13s
     0     0    9.00000    0    -          -    9.00000      -     -   14s
     0     0    9.00000    0    -          -    9.00000      -     -   14s
     0     0    9.00000    0    -          -    9.00000      -     -   15s
     0     0    9.00000    0    -          -    9.00000      -     -   16s
     0     0    9.00000    0    4          -    9.00000      -     -   16s
H    0     0                     114.0000000   10.00000  91.2%     -   27s
     0     0   10.00000    0   10  114.00000   10.00000  91.2%     -   27s
     0     0   10.00000    0   10  114.00000   10.00000  91.2%     -   40s
H    0     0                      82.0000000   10.00000  87.8%     -   41s
     0     0   10.00000    0    8   82.00000   10.00000  87.8%     -   41s
     0     2   10.00000    0    8   82.00000   10.00000  87.8%     -   43s
    19    19   11.33333    7    5   82.00000   10.25000  87.5%   2.7   50s
    29    21   12.50000    9    3   82.00000   10.25000  87.5%   2.7   56s
    43    25   10.33333    4    4   82.00000   10.33333  87.4%   2.6   62s
    65    49   11.25000    5    5   82.00000   10.41667  87.3%   2.7   72s
    79    47   11.33333    8    4   82.00000   10.66667  87.0%   2.7   76s
    95    58   10.83333    5   14   82.00000   10.83333  86.8%   2.6   87s
   114    73   11.83333    9    7   82.00000   10.83333  86.8%   2.7   95s
   138    80   13.00000   14    -   82.00000   10.83333  86.8%   2.6  105s
   166    92   13.00000   12    4   82.00000   10.83333  86.8%   2.6  116s
   191   116   13.00000   11    -   82.00000   11.00000  86.6%   2.6  126s
   225   129   11.50000    7    7   82.00000   11.00000  86.6%   2.7  136s
   236   126   12.00000   10    6   82.00000   11.00000  86.6%   2.7  143s
   268   155   12.00000    8    -   82.00000   11.00000  86.6%   3.0  155s
   293   168   13.00000   16    -   82.00000   11.00000  86.6%   3.1  161s
   326   184   12.25000   13    5   82.00000   11.00000  86.6%   3.0  173s
   362   207   12.33333    9    4   82.00000   11.22222  86.3%   3.1  186s
   382   221   11.50000    4    3   82.00000   11.22222  86.3%   3.1  190s
   403   235   11.78571    8    8   82.00000   11.22222  86.3%   3.2  199s
   432   259   12.83333   15    7   82.00000   11.22222  86.3%   3.3  207s
H  456   264                      78.0000000   11.22222  85.6%   3.3  214s
   467   275   14.00000   22    7   78.00000   11.33333  85.5%   3.3  217s
H  483   282                      74.0000000   11.33333  84.7%   3.3  224s
H  499   299                      67.0000000   11.33333  83.1%   3.4  229s
   520   308   13.00000   19   12   67.00000   11.33333  83.1%   3.4  237s
   555   328   12.29167    6   13   67.00000   11.50000  82.8%   3.5  250s
   597   354   14.00000   15    -   67.00000   11.50000  82.8%   3.6  264s
   632   385   12.64286    8   13   67.00000   11.50000  82.8%   3.7  273s
   675   404   12.75000   15    8   67.00000   11.66667  82.6%   3.7  284s
   688   408   12.40000    7    6   67.00000   11.66667  82.6%   3.7  290s
   743   448   13.00000   12   15   67.00000   11.66667  82.6%   3.7  307s
   804   488   13.33333    8   13   67.00000   11.66667  82.6%   3.7  326s
   859   516   15.00000   15    -   67.00000   11.66667  82.6%   3.7  345s
   906   559   13.25000   14    5   67.00000   11.75000  82.5%   3.8  361s
   965   603   13.09091   11   11   67.00000   11.86667  82.3%   3.8  382s
  1025   701   12.50595   11   25   67.00000   12.00000  82.1%   3.9  402s
  1090   715   13.54167   13   14   67.00000   12.00000  82.1%   3.9  422s
  1230   777   12.44231   13   16   67.00000   12.00000  82.1%   4.0  465s
  1274   857   13.20000   19    7   67.00000   12.00000  82.1%   4.1  482s
  1331   877   14.00000   22    -   67.00000   12.00000  82.1%   4.1  505s
H 1458   923                      66.0000000   12.00000  81.8%   4.4  546s
H 1461   925                      64.0000000   12.00000  81.2%   4.4  547s
  1505  1015   13.06667   11   16   64.00000   12.00000  81.2%   4.4  557s
  1556  1030   14.00000   15    4   64.00000   12.00000  81.2%   4.4  571s
  1607  1049   13.25000   15    7   64.00000   12.00000  81.2%   4.5  595s

Cutting planes:
  User: 2
  MIR: 1
  Lazy constraints: 262

Explored 1734 nodes (7885 simplex iterations) in 635.30 seconds (2.09 work units)
Thread count was 4 (of 4 available processors)

Solution count 7: 64 66 67 ... 114

Time limit reached
Best objective 6.400000000000e+01, best bound 1.200000000000e+01, gap 81.2500%

User-callback calls 4485, time in user-callback 631.24 sec
